142748
11,41,67,104,38,95,54,85,48,73,36,71,70,18,37,39,49,7,84,53,63,32,75,15,96,78,94,3,101,105,60,91,79,43,102,74,24,1,87,44,66,59,10,27,28,58,76,93,89,80,57,83,34,23,12,92,9,26,14,47,61,4,103,35,51,100,99,68,50,19,42,81,46,77,86,25,45,72,82,33,2,62,22,21,17,90,64,16,20,56,40,6,69,88,13,52,65,31,98,106,8,97,55,5,29,30